NAME : kroD100.best.tour
TYPE : TOUR
DIMENSION : 100
TOUR_SECTION
1
13
79
88
27
24
41
84
69
15
73
39
91
54
63
16
77
43
71
4
93
44
60
53
5
62
37
19
51
35
30
100
2
48
92
87
26
55
9
10
95
56
21
47
28
12
82
25
20
18
6
40
83
3
59
85
64
96
86
65
14
68
33
45
99
78
31
57
72
80
76
61
74
7
75
67
36
29
58
22
70
49
98
97
32
94
17
90
11
89
42
23
46
52
8
66
38
81
34
50
EOF